p edge 40 194 20
v 2 5 23
v 2 17 29
v 3 4 12 28
v 2 16 38
v 4 2 10 25 30
v 1 36
v 3 18 31 35
v 2 7 37
v 2 27 39
v 1 32
v 3 11 21 34
v 3 6 15 40
v 1 20
v 1 3
v 2 1 14
v 2 22 24
v 1 26
v 1 19
v 3 8 13 33
v 1 9
e 1 9
e 1 12
e 1 16
e 1 17
e 1 19
e 1 20
e 1 22
e 1 27
e 1 28
e 1 29
e 1 30
e 1 32
e 1 33
e 1 38
e 2 11
e 2 14
e 2 16
e 2 22
e 2 26
e 2 29
e 2 32
e 2 34
e 3 17
e 3 21
e 3 23
e 3 39
e 4 5
e 4 6
e 4 8
e 4 14
e 4 22
e 4 26
e 4 28
e 4 29
e 4 30
e 4 40
e 5 6
e 5 7
e 5 16
e 5 17
e 5 24
e 5 27
e 5 30
e 5 32
e 5 33
e 5 37
e 6 12
e 6 21
e 6 28
e 6 32
e 6 37
e 6 40
e 7 15
e 7 18
e 7 21
e 7 22
e 7 27
e 7 28
e 7 33
e 7 34
e 7 35
e 7 36
e 7 40
e 8 9
e 8 32
e 8 35
e 8 37
e 9 11
e 9 12
e 9 13
e 9 19
e 9 21
e 9 26
e 9 37
e 10 14
e 10 16
e 10 29
e 10 39
e 11 18
e 11 19
e 11 20
e 11 21
e 11 25
e 11 29
e 11 31
e 11 38
e 11 40
e 12 21
e 12 25
e 12 29
e 12 30
e 12 31
e 12 36
e 13 15
e 13 16
e 13 22
e 13 23
e 13 24
e 13 28
e 13 29
e 13 31
e 13 33
e 13 34
e 13 35
e 13 37
e 13 39
e 14 16
e 14 22
e 14 24
e 14 25
e 14 31
e 14 33
e 14 34
e 14 35
e 14 37
e 14 39
e 15 17
e 15 24
e 15 25
e 15 28
e 15 31
e 15 35
e 15 39
e 16 19
e 16 30
e 17 18
e 17 22
e 17 26
e 17 27
e 17 28
e 18 28
e 18 37
e 18 39
e 19 23
e 19 25
e 19 35
e 19 36
e 19 37
e 19 38
e 20 22
e 20 28
e 21 24
e 21 25
e 21 31
e 21 36
e 21 38
e 22 23
e 22 26
e 22 29
e 22 33
e 22 34
e 22 35
e 23 25
e 23 29
e 23 36
e 23 39
e 24 30
e 24 31
e 24 32
e 24 36
e 24 37
e 24 38
e 24 39
e 25 38
e 26 27
e 26 28
e 26 35
e 26 38
e 28 29
e 28 30
e 28 33
e 28 34
e 28 37
e 28 39
e 29 35
e 29 40
e 30 35
e 30 37
e 30 38
e 31 39
e 31 40
e 32 36
e 32 38
e 33 34
e 33 37
e 33 38
e 33 40
e 34 38
e 35 37
e 36 37
e 36 40
e 37 38
e 37 40
e 39 40
